p cnf 456 338
d 0.875 0.125
d 0.875 0.125
d 0.875 0.125
d 0.875 0.125
d 0.875 0.125
d 0.875 0.125
d 0.875 0.125
d 0.875 0.125
d 0.875 0.125
d 0.875 0.125
d 0.875 0.125
d 0.875 0.125
d 0.875 0.125
d 0.875 0.125
d 0.875 0.125
d 0.875 0.125
d 0.875 0.125
d 0.875 0.125
d 0.875 0.125
d 0.875 0.125
d 0.875 0.125
d 0.875 0.125
d 0.875 0.125
d 0.875 0.125
d 0.875 0.125
d 0.875 0.125
d 0.875 0.125
d 0.875 0.125
d 0.875 0.125
d 0.875 0.125
d 0.875 0.125
d 0.875 0.125
d 0.875 0.125
d 0.875 0.125
d 0.875 0.125
d 0.875 0.125
d 0.875 0.125
d 0.875 0.125
d 0.875 0.125
d 0.875 0.125
d 0.875 0.125
d 0.875 0.125
d 0.875 0.125
d 0.875 0.125
d 0.875 0.125
d 0.875 0.125
d 0.875 0.125
d 0.875 0.125
d 0.875 0.125
d 0.875 0.125
d 0.875 0.125
d 0.875 0.125
d 0.875 0.125
d 0.875 0.125
d 0.875 0.125
d 0.875 0.125
d 0.875 0.125
d 0.875 0.125
d 0.875 0.125
d 0.875 0.125
d 0.875 0.125
d 0.875 0.125
d 0.875 0.125
d 0.875 0.125
d 0.875 0.125
d 0.875 0.125
d 0.875 0.125
d 0.875 0.125
d 0.875 0.125
d 0.875 0.125
d 0.875 0.125
d 0.875 0.125
d 0.875 0.125
d 0.875 0.125
d 0.875 0.125
d 0.875 0.125
d 0.875 0.125
d 0.875 0.125
d 0.875 0.125
d 0.875 0.125
d 0.875 0.125
d 0.875 0.125
d 0.875 0.125
d 0.875 0.125
d 0.875 0.125
d 0.875 0.125
d 0.875 0.125
d 0.875 0.125
d 0.875 0.125
d 0.875 0.125
d 0.875 0.125
d 0.875 0.125
d 0.875 0.125
d 0.875 0.125
d 0.875 0.125
d 0.875 0.125
d 0.875 0.125
d 0.875 0.125
d 0.875 0.125
d 0.875 0.125
d 0.875 0.125
d 0.875 0.125
d 0.875 0.125
d 0.875 0.125
d 0.875 0.125
d 0.875 0.125
d 0.875 0.125
d 0.875 0.125
d 0.875 0.125
d 0.875 0.125
d 0.875 0.125
d 0.875 0.125
d 0.875 0.125
d 0.875 0.125
d 0.875 0.125
d 0.875 0.125
d 0.875 0.125
d 0.875 0.125
d 0.875 0.125
d 0.875 0.125
d 0.875 0.125
d 0.875 0.125
d 0.875 0.125
d 0.875 0.125
d 0.875 0.125
d 0.875 0.125
d 0.875 0.125
d 0.875 0.125
d 0.875 0.125
d 0.875 0.125
d 0.875 0.125
d 0.875 0.125
d 0.875 0.125
d 0.875 0.125
d 0.875 0.125
d 0.875 0.125
d 0.875 0.125
d 0.875 0.125
d 0.875 0.125
d 0.875 0.125
d 0.875 0.125
d 0.875 0.125
d 0.875 0.125
d 0.875 0.125
d 0.875 0.125
d 0.875 0.125
d 0.875 0.125
d 0.875 0.125
d 0.875 0.125
d 0.875 0.125
d 0.875 0.125
d 0.875 0.125
d 0.875 0.125
d 0.875 0.125
d 0.875 0.125
d 0.875 0.125
d 0.875 0.125
d 0.875 0.125
d 0.875 0.125
d 0.875 0.125
d 0.875 0.125
d 0.875 0.125
d 0.875 0.125
d 0.875 0.125
d 0.875 0.125
d 0.875 0.125
d 0.875 0.125
d 0.875 0.125
356
-358
361 -352 -0
352 -361 -0
391 -356 -2
356 -391 -2
454 -409 -4
409 -454 -4
429 -411 -6
411 -429 -6
419 -347 -8
347 -419 -8
349 -423 -10
423 -349 -10
400 -360 -12
360 -400 -12
386 -424 -14
424 -386 -14
454 -409 -16
409 -454 -16
437 -454 -18
454 -437 -18
417 -377 -20
377 -417 -20
399 -422 -22
422 -399 -22
380 -396 -24
396 -380 -24
399 -430 -26
430 -399 -26
387 -369 -28
369 -387 -28
358 -412 -30
412 -358 -30
410 -443 -32
443 -410 -32
377 -389 -34
389 -377 -34
453 -353 -36
353 -453 -36
342 -337 -38
337 -342 -38
345 -359 -40
359 -345 -40
452 -454 -42
454 -452 -42
396 -370 -44
370 -396 -44
371 -348 -46
348 -371 -46
364 -421 -48
421 -364 -48
387 -355 -50
355 -387 -50
344 -424 -52
424 -344 -52
405 -441 -54
441 -405 -54
404 -452 -56
452 -404 -56
352 -375 -58
375 -352 -58
350 -367 -60
367 -350 -60
362 -426 -62
426 -362 -62
367 -393 -64
393 -367 -64
382 -337 -66
337 -382 -66
437 -340 -68
340 -437 -68
369 -408 -70
408 -369 -70
415 -417 -72
417 -415 -72
447 -448 -74
448 -447 -74
393 -385 -76
385 -393 -76
365 -426 -78
426 -365 -78
379 -402 -80
402 -379 -80
405 -432 -82
432 -405 -82
354 -446 -84
446 -354 -84
406 -429 -86
429 -406 -86
420 -453 -88
453 -420 -88
437 -357 -90
357 -437 -90
437 -418 -92
418 -437 -92
387 -402 -94
402 -387 -94
396 -368 -96
368 -396 -96
444 -339 -98
339 -444 -98
370 -368 -100
368 -370 -100
348 -439 -102
439 -348 -102
416 -407 -104
407 -416 -104
416 -395 -106
395 -416 -106
423 -389 -108
389 -423 -108
367 -344 -110
344 -367 -110
437 -350 -112
350 -437 -112
337 -374 -114
374 -337 -114
407 -437 -116
437 -407 -116
430 -374 -118
374 -430 -118
447 -379 -120
379 -447 -120
362 -446 -122
446 -362 -122
357 -418 -124
418 -357 -124
437 -427 -126
427 -437 -126
359 -441 -128
441 -359 -128
421 -341 -130
341 -421 -130
382 -422 -132
422 -382 -132
337 -422 -134
422 -337 -134
415 -339 -136
339 -415 -136
408 -395 -138
395 -408 -138
407 -437 -140
437 -407 -140
417 -384 -142
384 -417 -142
398 -455 -144
455 -398 -144
348 -371 -146
371 -348 -146
349 -377 -148
377 -349 -148
438 -413 -150
413 -438 -150
436 -454 -152
454 -436 -152
340 -418 -154
418 -340 -154
419 -347 -156
347 -419 -156
352 -375 -158
375 -352 -158
382 -337 -160
337 -382 -160
350 -410 -162
410 -350 -162
438 -376 -164
376 -438 -164
391 -356 -166
356 -391 -166
407 -437 -168
437 -407 -168
434 -386 -170
386 -434 -170
453 -440 -172
440 -453 -172
434 -343 -174
343 -434 -174
394 -433 -176
433 -394 -176
397 -424 -178
424 -397 -178
454 -431 -180
431 -454 -180
355 -447 -182
447 -355 -182
340 -428 -184
428 -340 -184
435 -455 -186
455 -435 -186
363 -384 -188
384 -363 -188
434 -343 -190
343 -434 -190
448 -442 -192
442 -448 -192
452 -409 -194
409 -452 -194
345 -441 -196
441 -345 -196
445 -353 -198
353 -445 -198
435 -406 -200
406 -435 -200
454 -431 -202
431 -454 -202
388 -430 -204
430 -388 -204
415 -377 -206
377 -415 -206
347 -421 -208
421 -347 -208
337 -374 -210
374 -337 -210
411 -414 -212
414 -411 -212
373 -446 -214
446 -373 -214
442 -440 -216
440 -442 -216
395 -407 -218
407 -395 -218
337 -358 -220
358 -337 -220
406 -435 -222
435 -406 -222
407 -437 -224
437 -407 -224
372 -428 -226
428 -372 -226
356 -359 -228
359 -356 -228
383 -345 -230
345 -383 -230
447 -448 -232
448 -447 -232
449 -357 -234
357 -449 -234
373 -362 -236
362 -373 -236
450 -451 -238
451 -450 -238
413 -439 -240
439 -413 -240
447 -379 -242
379 -447 -242
440 -353 -244
353 -440 -244
416 -407 -246
407 -416 -246
454 -392 -248
392 -454 -248
412 -398 -250
398 -412 -250
410 -390 -252
390 -410 -252
411 -429 -254
429 -411 -254
454 -444 -256
444 -454 -256
355 -447 -258
447 -355 -258
389 -384 -260
384 -389 -260
360 -437 -262
437 -360 -262
450 -451 -264
451 -450 -264
438 -451 -266
451 -438 -266
337 -381 -268
381 -337 -268
425 -428 -270
428 -425 -270
392 -373 -272
373 -392 -272
408 -439 -274
439 -408 -274
405 -385 -276
385 -405 -276
401 -392 -278
392 -401 -278
351 -376 -280
376 -351 -280
412 -358 -282
358 -412 -282
371 -413 -284
413 -371 -284
391 -346 -286
346 -391 -286
361 -337 -288
337 -361 -288
444 -339 -290
339 -444 -290
437 -366 -292
366 -437 -292
394 -432 -294
432 -394 -294
343 -403 -296
403 -343 -296
365 -349 -298
349 -365 -298
390 -414 -300
414 -390 -300
394 -386 -302
386 -394 -302
338 -443 -304
443 -338 -304
370 -351 -306
351 -370 -306
367 -344 -308
344 -367 -308
425 -341 -310
341 -425 -310
427 -393 -312
393 -427 -312
455 -361 -314
361 -455 -314
414 -385 -316
385 -414 -316
415 -378 -318
378 -415 -318
399 -375 -320
375 -399 -320
443 -338 -322
338 -443 -322
437 -454 -324
454 -437 -324
351 -402 -326
402 -351 -326
414 -432 -328
432 -414 -328
336 -442 -330
442 -336 -330
388 -381 -332
381 -388 -332
450 -376 -334
376 -450 -334